\* Problem: Unknown *\

Maximize
 obj: + xp_0_0 + xp_0_1 + xp_1_0 + xp_2_0 + xp_2_1 + xp_3_0 + xp_3_1
 + xp_4_0 + xp_5_0 + xp_6_0 + xp_6_1 + xp_7_0 + xp_8_0 + xp_9_0
 + xp_10_0 + xp_10_1 + xp_10_2 + xp_11_0 + xp_12_0 + xp_12_1 + xp_12_2
 + xp_13_0 + xp_14_0 + xp_15_0 + xp_15_1 + xp_16_0 + xp_17_0 + xp_17_1
 + xp_18_0 + xp_18_1 + xp_19_0 + xp_20_0 + xp_21_0 + xp_21_1 + xp_21_2
 + xp_22_0 + xp_22_1 + xp_22_2 + xp_23_0 + xp_24_0 + xp_24_1 + xp_24_2
 + xp_25_0 + xp_26_0 + xp_27_0 + xp_28_0 + xp_28_1 + xp_29_0 + xp_30_0
 + xp_31_0 + xp_31_1 + xp_32_0 + xp_33_0 + xp_34_0 + xp_35_0 + xp_36_0
 + xp_37_0 + xp_38_0 + xp_38_1 + xp_39_0 + xp_40_0 + xp_40_1 + xp_41_0
 + xp_42_0 + xp_42_1 + xp_42_2 + xp_43_0 + xp_44_0 + xp_44_1 + xp_45_0
 + xp_46_0 + xp_47_0 + xp_48_0 + xp_48_1 + xp_48_2 + xp_49_0 + xp_50_0
 + xp_51_0 + xp_52_0 + xp_52_1 + xp_53_0 + xp_54_0 + xp_55_0 + xp_55_1
 + xp_56_0 + xp_56_1 + xp_57_0 + xp_58_0 + xp_58_1 + xp_59_0 + xp_60_0
 + xp_60_1 + xp_60_2 + xp_61_0 + xp_62_0 + xp_63_0 + xp_64_0 + xp_65_0

Subject To
 r_1: + xp_53_0 + xp_51_0 + xp_48_1 + xp_42_1 + xp_40_0 + xp_35_0
 + xp_33_0 <= 152.393669634026
 r_2: + xp_58_1 + xp_24_1 + xp_15_1 <= 153.637538779731
 r_3: + xp_56_0 + xp_21_0 + xp_12_0 <= 153.637538779731
 r_4: + xp_65_0 + xp_50_0 + xp_48_1 + xp_45_0 + xp_24_2 + xp_24_0
 + xp_15_0 + xp_12_2 + xp_10_1 + xp_10_0 + xp_5_0 + xp_2_1
 <= 153.637538779731
 r_5: + xp_38_0 + xp_31_1 + xp_17_0 + xp_14_0 <= 139.672131147541
 r_6: + xp_56_1 + xp_52_1 + xp_22_2 + xp_22_0 + xp_21_2 + xp_21_1
 + xp_17_1 + xp_13_0 + xp_12_1 + xp_10_2 + xp_3_0 + xp_2_0
 <= 146.733333333333
 r_7: + xp_60_2 + xp_60_1 + xp_48_2 + xp_46_0 + xp_42_2 + xp_42_0
 + xp_40_1 + xp_0_0 <= 149.23665791776
 r_8: 0 xp_0_0 <= 152.393669634026
 r_9: + xp_64_0 + xp_25_0 + xp_24_1 + xp_21_0 + xp_6_0
 <= 152.393669634026
 r_10: + xp_63_0 <= 150.204731574158
 r_11: + xp_60_1 + xp_60_0 + xp_38_1 + xp_31_0 <= 155
 r_12: + xp_62_0 + xp_61_0 + xp_60_2 + xp_22_1 + xp_3_1
 <= 146.733333333333
 r_13: + xp_64_0 + xp_59_0 + xp_58_1 + xp_56_0 + xp_29_0 + xp_24_1
 + xp_21_0 + xp_20_0 + xp_15_1 + xp_12_0 <= 152.393669634026
 r_14: + xp_57_0 + xp_53_0 + xp_48_1 + xp_42_2 + xp_42_1 + xp_35_0
 + xp_18_0 <= 152.393669634026
 r_15: + xp_58_0 + xp_56_1 <= 149.23665791776
 r_16: + xp_65_0 + xp_55_0 + xp_53_0 + xp_51_0 + xp_50_0 + xp_48_1
 + xp_44_1 + xp_10_1 + xp_10_0 <= 153.637538779731
 r_17: + xp_58_1 + xp_54_0 + xp_52_1 + xp_36_0 + xp_31_1
 <= 153.637538779731
 r_18: + xp_55_1 + xp_52_0 + xp_12_2 + xp_2_1 <= 153.637538779731
 r_19: + xp_60_0 + xp_48_0 <= 152.393669634026
 r_20: + xp_60_1 + xp_50_0 + xp_49_0 + xp_48_2 + xp_48_1 + xp_46_0
 + xp_45_0 + xp_21_2 + xp_10_1 <= 139.672131147541
 r_21: + xp_47_0 + xp_26_0 + xp_22_1 + xp_17_0 + xp_7_0 + xp_3_1 <= 155
 r_22: + xp_61_0 + xp_60_2 + xp_43_0 + xp_42_2 + xp_42_0 + xp_40_1
 + xp_38_0 <= 146.733333333333
 r_23: + xp_56_1 + xp_56_0 + xp_52_1 + xp_52_0 + xp_41_0 + xp_38_1
 + xp_34_0 + xp_31_0 + xp_17_1 <= 146.733333333333
 r_24: + xp_62_0 + xp_44_1 + xp_44_0 + xp_42_1 + xp_40_0 + xp_39_0
 + xp_21_2 + xp_21_1 + xp_12_1 + xp_10_2 + xp_2_0 <= 153.637538779731
 r_25: + xp_62_0 + xp_55_1 + xp_44_0 + xp_42_1 + xp_40_0 + xp_37_0
 + xp_35_0 + xp_33_0 + xp_10_2 <= 153.637538779731
 r_26: + xp_44_1 + xp_39_0 + xp_36_0 + xp_32_0 + xp_31_1
 <= 153.637538779731
 r_27: + xp_56_0 + xp_52_0 + xp_34_0 + xp_31_0 + xp_30_0
 <= 153.637538779731
 r_28: + xp_60_2 + xp_60_1 + xp_60_0 + xp_48_2 + xp_48_0 + xp_42_0
 + xp_27_0 + xp_25_0 + xp_24_1 + xp_21_0 + xp_18_1 + xp_8_0 + xp_6_0
 <= 150.204731574158
 r_29: + xp_29_0 + xp_28_0 + xp_24_2 + xp_22_0 + xp_6_1 + xp_0_1
 <= 149.23665791776
 r_30: + xp_63_0 + xp_28_1 + xp_26_0 + xp_24_0 + xp_23_0 + xp_22_2
 + xp_22_1 + xp_21_2 + xp_21_1 <= 152.393669634026
 r_31: + xp_58_0 + xp_56_1 + xp_28_0 + xp_24_2 + xp_22_0 + xp_19_0
 + xp_17_1 + xp_17_0 + xp_15_0 + xp_14_0 + xp_13_0 + xp_12_2 + xp_12_1
 <= 149.23665791776
 r_32: + xp_46_0 + xp_42_2 + xp_40_1 + xp_29_0 + xp_20_0 + xp_18_0
 + xp_16_0 + xp_15_1 + xp_12_0 + xp_6_1 <= 149.23665791776
 r_33: + xp_60_2 + xp_60_1 + xp_48_2 + xp_42_0 + xp_18_1 + xp_11_0
 <= 149.23665791776
 r_34: + xp_26_0 + xp_23_0 + xp_22_1 + xp_21_2 + xp_10_1 + xp_7_0
 + xp_4_0 + xp_3_1 <= 152.393669634026
 r_35: + xp_60_0 + xp_48_0 + xp_8_0 + xp_6_1 + xp_6_0 + xp_1_0 + xp_0_1
 <= 152.393669634026
 r_36: + xp_63_0 + xp_28_1 + xp_24_0 + xp_22_2 + xp_21_1 + xp_10_2
 + xp_10_0 + xp_9_0 + xp_5_0 + xp_3_0 + xp_2_1 + xp_2_0 + xp_0_0
 <= 152.393669634026

Bounds
 0 <= xp_0_0 <= 6.81510710259301
 0 <= xp_0_1 <= 20.445321307779
 0 <= xp_1_0 <= 22.0879368658399
 0 <= xp_2_0 <= 12.1623449830891
 0 <= xp_2_1 <= 12.1623449830891
 0 <= xp_3_0 <= 3.52987598647125
 0 <= xp_3_1 <= 10.5896279594138
 0 <= xp_4_0 <= 27.6798196166855
 0 <= xp_5_0 <= 22.0879368658399
 0 <= xp_6_0 <= 12.7215332581736
 0 <= xp_6_1 <= 12.7215332581736
 0 <= xp_7_0 <= 21.5287485907553
 0 <= xp_8_0 <= 24.4644870349493
 0 <= xp_9_0 <= 17.0552423900789
 0 <= xp_10_0 <= 3.98421645997745
 0 <= xp_10_1 <= 3.98421645997745
 0 <= xp_10_2 <= 7.9684329199549
 0 <= xp_11_0 <= 25.0236753100338
 0 <= xp_12_0 <= 8.17812852311161
 0 <= xp_12_1 <= 4.08906426155581
 0 <= xp_12_2 <= 4.08906426155581
 0 <= xp_13_0 <= 14.6786922209696
 0 <= xp_14_0 <= 22.227733934611
 0 <= xp_15_0 <= 6.91995490417136
 0 <= xp_15_1 <= 20.7598647125141
 0 <= xp_16_0 <= 26.4216459977452
 0 <= xp_17_0 <= 17.4047350620068
 0 <= xp_17_1 <= 5.80157835400225
 0 <= xp_18_0 <= 4.96279594137542
 0 <= xp_18_1 <= 14.8883878241263
 0 <= xp_19_0 <= 19.152198421646
 0 <= xp_20_0 <= 22.7869222096956
 0 <= xp_21_0 <= 4.57835400225479
 0 <= xp_21_1 <= 4.57835400225479
 0 <= xp_21_2 <= 9.15670800450958
 0 <= xp_22_0 <= 5.55693348365276
 0 <= xp_22_1 <= 11.1138669673055
 0 <= xp_22_2 <= 5.55693348365276
 0 <= xp_23_0 <= 22.9267192784667
 0 <= xp_24_0 <= 8.94701240135287
 0 <= xp_24_1 <= 4.47350620067644
 0 <= xp_24_2 <= 4.47350620067644
 0 <= xp_25_0 <= 27.260428410372
 0 <= xp_26_0 <= 18.173618940248
 0 <= xp_27_0 <= 14.6786922209696
 0 <= xp_28_0 <= 18.1386696730552
 0 <= xp_28_1 <= 6.04622322435175
 0 <= xp_29_0 <= 21.9481397970688
 0 <= xp_30_0 <= 27.1206313416009
 0 <= xp_31_0 <= 4.36865839909808
 0 <= xp_31_1 <= 13.1059751972942
 0 <= xp_32_0 <= 15.3776775648252
 0 <= xp_33_0 <= 18.4532130777903
 0 <= xp_34_0 <= 22.227733934611
 0 <= xp_35_0 <= 15.2378804960541
 0 <= xp_36_0 <= 17.6144306651635
 0 <= xp_37_0 <= 13.9797068771139
 0 <= xp_38_0 <= 13.0011273957159
 0 <= xp_38_1 <= 4.3337091319053
 0 <= xp_39_0 <= 14.8184892897407
 0 <= xp_40_0 <= 14.2593010146561
 0 <= xp_40_1 <= 4.75310033821871
 0 <= xp_41_0 <= 20.130777903044
 0 <= xp_42_0 <= 11.7429537767756
 0 <= xp_42_1 <= 5.87147688838782
 0 <= xp_42_2 <= 5.87147688838782
 0 <= xp_43_0 <= 16.6358511837655
 0 <= xp_44_0 <= 13.315670800451
 0 <= xp_44_1 <= 4.43855693348365
 0 <= xp_45_0 <= 14.6786922209696
 0 <= xp_46_0 <= 20.5501691093574
 0 <= xp_47_0 <= 19.5715896279594
 0 <= xp_48_0 <= 13.8399098083427
 0 <= xp_48_1 <= 6.91995490417136
 0 <= xp_48_2 <= 6.91995490417136
 0 <= xp_49_0 <= 14.5388951521984
 0 <= xp_50_0 <= 15.7970687711387
 0 <= xp_51_0 <= 23.6257046223224
 0 <= xp_52_0 <= 19.6065388951522
 0 <= xp_52_1 <= 6.53551296505073
 0 <= xp_53_0 <= 27.4002254791432
 0 <= xp_54_0 <= 26.9808342728298
 0 <= xp_55_0 <= 15.8320180383314
 0 <= xp_55_1 <= 5.27733934611048
 0 <= xp_56_0 <= 11.1138669673055
 0 <= xp_56_1 <= 3.70462232243517
 0 <= xp_57_0 <= 17.4746335963923
 0 <= xp_58_0 <= 20.3404735062007
 0 <= xp_58_1 <= 6.78015783540022
 0 <= xp_59_0 <= 27.1206313416009
 0 <= xp_60_0 <= 8.59751972942503
 0 <= xp_60_1 <= 4.29875986471251
 0 <= xp_60_2 <= 4.29875986471251
 0 <= xp_61_0 <= 25.3032694475761
 0 <= xp_62_0 <= 26.9808342728298
 0 <= xp_63_0 <= 25.3032694475761
 0 <= xp_64_0 <= 27.260428410372
 0 <= xp_65_0 <= 19.7113866967305

End
